(set-info :origin "driver benchmark extracted from Microsoft SDV")
(set-logic HORN)
(declare-fun Proc14 (Int Int Int Bool Int Int Int Int) Bool)
(declare-fun Proc34 (Int Int Int Bool Int Int Int Int) Bool)
(declare-fun Proc17 (Int Int Int Bool Int Int Int Int) Bool)
(declare-fun Proc27 (Int Int Int Bool Int) Bool)
(declare-fun Proc10 (Int Int Int Bool Int Int Int Int) Bool)
(declare-fun Proc20 (Int Int Int Bool Int Int) Bool)
(declare-fun Proc25 (Int Int Int Bool) Bool)
(declare-fun Proc5 (Int Int Int Bool Int Int Int) Bool)
(declare-fun Proc13 (Int Int Int Bool Int) Bool)
(declare-fun Proc23 (Int Int Int Bool) Bool)
(declare-fun Proc6 (Int Int Int Bool Int Int Int Int) Bool)
(declare-fun Proc12 (Int Int Int Bool Int Int Int Int) Bool)
(declare-fun Proc7 (Int Int Int Bool Int Int Int Int) Bool)
(declare-fun Proc31 (Int Int Int Bool Int Int) Bool)
(declare-fun Proc18 (Int Int Int Bool Int Int Int Int Int Int) Bool)
(declare-fun Proc41 (Int Int Int Bool Int Bool Int Int Int) Bool)
(declare-fun Proc22 (Int Int Int Bool Int) Bool)
(declare-fun Proc37 (Int Int Int Bool Int Int) Bool)
(declare-fun Proc29 (Int Int Int Bool Int Int Int Bool Int) Bool)
(declare-fun Proc15 (Int Int Int Bool Int Int Int Int Int Int Int Int) Bool)
(declare-fun Proc30 (Int Int Int Bool Int) Bool)
(declare-fun Proc16 (Int Int Int Bool Int Int) Bool)
(declare-fun Proc39 (Int Int Int Bool Int Int Int Int Int) Bool)
(declare-fun Proc36 (Int Int Int Bool) Bool)
(declare-fun Proc3 (Int Int Int Bool Int) Bool)
(declare-fun Proc38 (Int Int Int Bool Int) Bool)
(declare-fun Proc19 (Int Int Int Bool Int Int Int Int) Bool)
(declare-fun Proc8 (Int Int Int Bool Int Int Int Int Int) Bool)
(declare-fun Proc11 (Int Int Int Bool Int Int) Bool)
(declare-fun Proc32 (Int Int Int Bool) Bool)
(declare-fun Proc21 (Int Int Int Bool Int Int Int Int) Bool)
(declare-fun Proc2 (Int Int Int Bool Int Int Int Int Int) Bool)
(declare-fun Proc35 (Int Int Int Bool Int) Bool)
(declare-fun Proc40 (Int Int Int Bool) Bool)
(declare-fun Proc9 (Int Int Int Bool Int Int Int Int Int Int) Bool)
(declare-fun Proc4
             (Int Int Int Bool Int Int Int Int Int Int Int Int Int Int Int Int)
             Bool)
(declare-fun Proc28 (Int Int Int Bool Int Int) Bool)
(declare-fun Proc26 (Int Int Int Bool Int Int) Bool)
(declare-fun Proc0 (Int Int Int Bool Int Int) Bool)
(declare-fun Proc33 (Int Int Int Bool) Bool)
(declare-fun Proc24 (Int Int Int Bool) Bool)
(declare-fun Proc1 (Int Int Int Bool Int Int Int Int) Bool)
(assert (forall ((A Int)
         (B Int)
         (C Int)
         (D Int)
         (E Int)
         (F Int)
         (G Int)
         (H Int)
         (I Int)
         (J Int)
         (K Int)
         (L Int)
         (M Int)
         (N Bool))
  (let ((a!1 (and (not (<= K (+ 4 M))) (not (<= K L))))
        (a!2 (not (and (not (= G 0)) (Proc1 K I H N F E 1 D)))))
  (let ((a!3 (or (not N)
                 (not (= M L))
                 (not a!1)
                 (= J 0)
                 (not (Proc0 K I H N 2 M))
                 (= G 0)
                 a!2
                 (not (and (= C 0) (= B K))))))
    (=> (not a!3) (Proc2 L I H N J A F C B))))))
(assert (forall ((A Int)
         (B Int)
         (C Int)
         (D Int)
         (E Int)
         (F Int)
         (G Int)
         (H Int)
         (I Int)
         (J Int)
         (N Bool))
  (let ((a!1 (not (and (not (= F 0))
                       (= E (+ 24 F))
                       (Proc4 J I H N E 99 F 0 D 0 0 0 1 1 1 C)))))
  (let ((a!2 (not (or (not N)
                      (not (Proc3 J I H N 0))
                      (= G 0)
                      (= F 0)
                      a!1
                      (not (= B 0))))))
    (=> a!2 (Proc5 J I H N G A B))))))
(assert (forall ((A Int)
         (B Int)
         (C Int)
         (D Int)
         (E Int)
         (F Int)
         (G Int)
         (H Int)
         (I Int)
         (J Int)
         (K Int)
         (L Int)
         (M Int)
         (N Bool)
         (O Int))
  (let ((a!1 (and (not (<= F (+ 1 G))) (not (<= F H))))
        (a!2 (not (and (= C 0) (= B E) (= A D)))))
  (let ((a!3 (and (or (not (= D 1)) a!2) (or (= D 1) a!2))))
  (let ((a!4 (not (or (not N)
                      (not (Proc6 O M L N K J I H))
                      (not (= G H))
                      (not a!1)
                      (not (Proc7 F M L N G J E D))
                      a!3))))
    (=> a!4 (Proc8 O M L N K J C B A)))))))
(assert (forall ((A Int)
         (B Int)
         (C Int)
         (D Int)
         (E Int)
         (F Int)
         (G Int)
         (H Int)
         (I Int)
         (J Int)
         (N Bool))
  (let ((a!1 (or (not N)
                 (= J 0)
                 (not (Proc9 I H G N F 100 E 1 1 1))
                 (not (Proc6 I H G N J F D C))
                 (not (and (= B D) (= A C))))))
    (=> (not a!1) (Proc10 I H G N J F B A)))))
(assert (forall ((A Int)
         (B Int)
         (C Int)
         (D Int)
         (E Int)
         (F Int)
         (G Int)
         (H Int)
         (I Int)
         (J Int)
         (K Int)
         (N Bool))
  (let ((a!1 (and (= K J) (not (<= I (+ 4 K)))))
        (a!2 (and (not (<= I J)) (= H I) (not (<= G (+ 4 H))) (not (<= G I)))))
  (let ((a!3 (or (not N)
                 (not a!1)
                 (not a!2)
                 (not (Proc11 G F E N H K))
                 (not (and (= D 0) (= C G))))))
    (=> (not a!3) (Proc12 J F E N B A D C))))))
(assert (forall ((A Int)
         (B Int)
         (C Int)
         (D Int)
         (E Int)
         (F Int)
         (G Int)
         (H Int)
         (I Int)
         (N Bool))
  (let ((a!1 (and (not (<= G (+ 4 I))) (not (<= G H)))))
  (let ((a!2 (or (not N)
                 (not (= I H))
                 (not a!1)
                 (not (Proc13 G F E N I))
                 (not (and (= D 0) (= C G))))))
    (=> (not a!2) (Proc14 H F E N B A D C))))))
(assert (forall ((A Int)
         (B Int)
         (C Int)
         (D Int)
         (E Int)
         (F Int)
         (G Int)
         (H Int)
         (I Int)
         (J Int)
         (K Int)
         (N Bool))
  (let ((a!1 (and (not (<= I (+ 4 K))) (not (<= I J)))))
  (let ((a!2 (or (not N)
                 (not (= K J))
                 (not a!1)
                 (not (Proc15 I H G N F 28 0 7 0 0 K E))
                 (not (Proc16 I H G N D 98))
                 (not (and (= C E) (= B I))))))
    (=> (not a!2) (Proc17 J H G N F A C B))))))
(assert (forall ((A Int) (B Int) (C Int) (D Int) (N Bool))
  (=> (not (or (not N) (= D 0))) (Proc13 C B A N D))))
(assert (forall ((A Int)
         (B Int)
         (C Int)
         (D Int)
         (E Int)
         (F Int)
         (G Int)
         (H Int)
         (I Int)
         (J Int)
         (K Int)
         (L Int)
         (M Int)
         (N Bool)
         (O Int)
         (P Int)
         (Q Int)
         (R Int)
         (S Int))
  (let ((a!1 (not (and (= Q (- 1073741670)) (= S Q))))
        (a!2 (not (and (= P (- 1073741811)) (= S P)))))
  (let ((a!3 (and (or (not (= S 0)) (not (= R S)))
                  (or a!1 (not (= R S)))
                  (or a!2 (not (= R S))))))
    (=> (not (or (not N) a!3)) (Proc4 O M L N K J I H G F E D C B A R))))))
(assert (forall ((A Int)
         (B Int)
         (C Int)
         (D Int)
         (E Int)
         (F Int)
         (G Int)
         (H Int)
         (I Int)
         (J Int)
         (K Int)
         (L Int)
         (M Int)
         (N Bool)
         (O Int)
         (P Int)
         (Q Int))
  (let ((a!1 (not (and (= M (- 1073741823)) (= P M))))
        (a!2 (not (and (= L (- 1073741670)) (= P L))))
        (a!3 (not (and (= K (- 1073741771)) (= P K))))
        (a!4 (not (and (= J (- 1073741824)) (= P J)))))
  (let ((a!5 (and (or (= Q 0) (not (= P 0)) (not (= O P)))
                  (or (= Q 0) a!1 (not (= O P)))
                  (or (= Q 0) a!2 (not (= O P)))
                  (or (= Q 0) a!3 (not (= O P)))
                  (or (= Q 0) a!4 (not (= O P))))))
    (=> (not (or (not N) a!5)) (Proc15 I H G N F E D C B A Q O))))))
(assert (forall ((A Int)
         (B Int)
         (C Int)
         (D Int)
         (E Int)
         (F Int)
         (G Int)
         (H Int)
         (I Int)
         (J Int)
         (K Int)
         (L Int)
         (M Int)
         (N Bool)
         (O Int)
         (P Int)
         (Q Int)
         (R Int)
         (S Int)
         (T Int)
         (U Int)
         (V Int)
         (W Int)
         (X Int)
         (Y Int)
         (Z Int)
         (A1 Int))
  (let ((a!1 (and (not (<= Y (+ 4 A1))) (not (<= Y Z))))
        (a!2 (or (not (Proc18 Y W V N U X T A1 S R))
                 (not (= Q R))
                 (not (and (= P 259) (= O Q)))))
        (a!3 (or (not (= Q Y)) (not (and (= P 259) (= O Q)))))
        (a!4 (or (not (Proc18 Y W V N M X L A1 K J))
                 (not (= Q J))
                 (not (and (= P 259) (= O Q)))))
        (a!5 (or (not (Proc18 Y W V N I X H A1 G F))
                 (not (= Q F))
                 (not (and (= P 259) (= O Q)))))
        (a!6 (or (not (Proc18 Y W V N E X D A1 C B))
                 (not (= Q B))
                 (not (and (= P 259) (= O Q))))))
  (let ((a!7 (or (not N)
                 (not (= A1 Z))
                 (not a!1)
                 (and (or (= X 0) (and a!2 a!3))
                      (or (= X 0) (and a!4 a!3))
                      (or (= X 0) (and a!5 a!3))
                      (or (= X 0) (and a!6 a!3))))))
    (=> (not a!7) (Proc19 Z W V N A X P O))))))
(assert (forall ((A Int)
         (B Int)
         (C Int)
         (D Int)
         (E Int)
         (F Int)
         (G Int)
         (H Int)
         (N Bool))
  (let ((a!1 (not (or (not N) (not (= H G))))))
    (=> a!1 (Proc1 F E D N C B A H)))))
(assert (forall ((A Int)
         (B Int)
         (C Int)
         (D Int)
         (E Int)
         (F Int)
         (G Int)
         (H Int)
         (I Int)
         (J Int)
         (N Bool))
  (let ((a!1 (and (not (<= H (+ 1 J))) (not (<= H I)))))
  (let ((a!2 (or (not N)
                 (not (= J I))
                 (not a!1)
                 (not (Proc20 H G F N J E))
                 (not (and (= D H) (= C E))))))
    (=> (not a!2) (Proc21 I G F N B A D C))))))
(assert (forall ((A Int)
         (B Int)
         (C Int)
         (D Int)
         (E Int)
         (F Int)
         (G Int)
         (H Int)
         (I Int)
         (J Int)
         (K Int)
         (L Int)
         (M Int)
         (N Bool)
         (O Int))
  (let ((a!1 (and (not (<= J (+ 1 L))) (not (<= J K))))
        (a!3 (or (not (= A 1))
                 (not (and (= H B) (= G A)))
                 (not (and (= F H) (= E G)))))
        (a!4 (or (= A 1)
                 (not (and (= H B) (= G A)))
                 (not (and (= F H) (= E G))))))
  (let ((a!2 (or (not (<= M 0))
                 (not (= L K))
                 (not a!1)
                 (not (Proc22 J M I N L))
                 (not (and (= H J) (= G I)))
                 (not (and (= F H) (= E G)))))
        (a!5 (or (not (= L K))
                 (not a!1)
                 (not (Proc22 J M I N L))
                 (not (and (= H J) (= G I)))
                 (not (and (= F H) (= E G))))))
  (let ((a!6 (and (or (not (Proc21 K M I N C O B A)) (and a!3 a!4)) a!5)))
  (let ((a!7 (or (not N) (= O 0) (and a!2 (or (<= M 0) (= D 0) a!6)))))
    (=> (not a!7) (Proc7 K M I N C O F E))))))))
(assert (forall ((A Int) (B Int) (C Int) (D Int) (E Int) (N Bool))
  (let ((a!1 (not (or (not N) (not (= E 1))))))
    (=> a!1 (Proc20 D C B N A E)))))
(assert (forall ((A Int) (B Int) (C Int) (D Int) (N Bool))
  (=> false (Proc22 D C B N A))))
(assert (forall ((A Int) (B Int) (C Int) (N Bool)) (=> false (Proc23 C B A N))))
(assert (forall ((A Int) (B Int) (C Int) (N Bool)) (=> N (Proc24 C B A N))))
(assert (forall ((A Int) (B Int) (C Int) (N Bool)) (=> N (Proc25 C B A N))))
(assert (forall ((A Int) (B Int) (C Int) (D Int) (E Int) (N Bool))
  (let ((a!1 (or (not N) (not (and (= E 0) (= D 0))))))
    (=> (not a!1) (Proc26 C B A N E D)))))
(assert (forall ((A Int)
         (B Int)
         (C Int)
         (D Int)
         (E Int)
         (F Int)
         (G Int)
         (H Int)
         (I Int)
         (J Int)
         (K Int)
         (L Int)
         (M Int)
         (N Bool)
         (O Int)
         (P Int)
         (B1 Bool)
         (C1 Bool)
         (D1 Bool))
  (let ((a!1 (not (and (not (<= P 0)) (Proc27 P O M D1 L))))
        (a!2 (not (and (= E G) (= D K) (= C H) (= B1 C1) (= B I)))))
  (let ((a!3 (or (= H 0) (not (and (= G F) (not C1))) a!2))
        (a!4 (or (not (and (= H 0) (= N D1))) (not (and (= G A) (= C1 N))) a!2)))
  (let ((a!5 (and (or (= H 1) (and a!3 a!4)) (or (not (= H 1)) (and a!3 a!4)))))
  (let ((a!6 (not (or (not D1)
                      a!1
                      (not (Proc26 L O M D1 K J))
                      (not (Proc25 L K J D1))
                      (not (Proc24 L K J D1))
                      (not (Proc28 L K J D1 I H))
                      a!5))))
    (=> a!6 (Proc29 P O M D1 E D C B1 B))))))))
(assert (forall ((A Int) (B Int) (C Int) (D Int) (E Int) (N Bool))
  (let ((a!1 (or (not N) (not (= E (- 1073741823))) (not (= D E)))))
    (=> (not a!1) (Proc30 C B A N D)))))
(assert (forall ((A Int) (B Int) (C Int) (D Int) (N Bool)) (=> N (Proc3 D C B N A))))
(assert (forall ((A Int)
         (B Int)
         (C Int)
         (D Int)
         (E Int)
         (F Int)
         (G Int)
         (H Int)
         (I Int)
         (N Bool))
  (let ((a!1 (or (not N)
                 (not (Proc19 I H G N F E D C))
                 (not (and (= B D) (= A C))))))
    (=> (not a!1) (Proc6 I H G N F E B A)))))
(assert (forall ((A Int)
         (B Int)
         (C Int)
         (D Int)
         (E Int)
         (F Int)
         (G Int)
         (H Int)
         (I Int)
         (N Bool))
  (let ((a!1 (and (or (not (= I H)) (not (= G I)))
                  (or (not (= I F)) (not (= G I)))
                  (or (not (= I E)) (not (= G I))))))
    (=> (not (or (not N) a!1)) (Proc31 D C B N A G)))))
(assert (forall ((A Int) (B Int) (C Int) (D Int) (E Int) (N Bool))
  (=> N (Proc16 E D C N B A))))
(assert (forall ((A Int)
         (B Int)
         (C Int)
         (D Int)
         (E Int)
         (F Int)
         (G Int)
         (H Int)
         (I Int)
         (J Int)
         (N Bool))
  (let ((a!1 (not (or (not N) (not (Proc31 J I H N G F)) (= F 0)))))
    (=> a!1 (Proc9 J I H N G E D C B A)))))
(assert (forall ((A Int) (B Int) (C Int) (D Int) (E Int) (N Bool))
  (=> (not (or (not N) (= E 0))) (Proc11 D C B N A E))))
(assert (forall ((A Int) (B Int) (C Int) (D Int) (E Int) (N Bool))
  (=> (not (or (not N) (= E 0))) (Proc0 D C B N A E))))
(assert (forall ((A Int)
         (B Int)
         (C Int)
         (D Int)
         (E Int)
         (F Int)
         (G Int)
         (H Int)
         (I Int)
         (N Bool))
  (let ((a!1 (or (not N)
                 (not (Proc32 I H G N))
                 (not (Proc17 I H G N F E D C))
                 (not (Proc33 C H G N))
                 (not (and (= B D) (= A C))))))
    (=> (not a!1) (Proc34 I H G N F E B A)))))
(assert (forall ((A Int)
         (B Int)
         (C Int)
         (D Int)
         (E Int)
         (F Int)
         (G Int)
         (H Int)
         (I Int)
         (J Int)
         (K Int)
         (L Int)
         (M Int)
         (N Bool)
         (O Int)
         (P Int)
         (Q Int)
         (R Int)
         (S Int)
         (T Int)
         (U Int)
         (V Int)
         (W Int)
         (X Int)
         (Y Int)
         (Z Int)
         (A1 Int)
         (E1 Int)
         (F1 Int)
         (G1 Int)
         (H1 Int)
         (I1 Int)
         (J1 Int)
         (K1 Int)
         (L1 Int)
         (M1 Int)
         (N1 Int)
         (O1 Int)
         (P1 Int)
         (Q1 Int)
         (R1 Int))
  (let ((a!1 (not (and (= E1 G1) (= A1 F1) (= Z H1))))
        (a!18 (not (Proc8 Q1 P1 O1 N M1 R1 F E D)))
        (a!20 (not (and (not (= D 1)) (= K1 D) (= J1 E) (= I1 F)))))
  (let ((a!2 (or (= N1 0)
                 (not (Proc5 Q1 P1 O1 N M1 R1 L1))
                 (not (= K1 O1))
                 (not (and (= J1 Q1) (= I1 L1)))
                 (not (Proc37 J1 P1 K1 N I1 R1))
                 (= R1 0)
                 (not (= H1 K1))
                 (not (and (= G1 I1) (= F1 J1)))
                 a!1))
        (a!3 (or (= N1 0)
                 (not (Proc30 Q1 P1 O1 N Y))
                 (not (= K1 O1))
                 (not (and (= J1 Q1) (= I1 Y)))
                 (not (Proc37 J1 P1 K1 N I1 R1))
                 (= R1 0)
                 (not (= H1 K1))
                 (not (and (= G1 I1) (= F1 J1)))
                 a!1))
        (a!4 (or (= N1 0)
                 (not (Proc12 Q1 P1 O1 N M1 R1 X W))
                 (not (= K1 O1))
                 (not (and (= J1 W) (= I1 X)))
                 (not (Proc37 J1 P1 K1 N I1 R1))
                 (= R1 0)
                 (not (= H1 K1))
                 (not (and (= G1 I1) (= F1 J1)))
                 a!1))
        (a!5 (or (= N1 0)
                 (not (Proc30 Q1 P1 O1 N V))
                 (not (= K1 O1))
                 (not (and (= J1 Q1) (= I1 V)))
                 (not (Proc37 J1 P1 K1 N I1 R1))
                 (= R1 0)
                 (not (= H1 K1))
                 (not (and (= G1 I1) (= F1 J1)))
                 a!1))
        (a!6 (or (= N1 0)
                 (not (Proc30 Q1 P1 O1 N U))
                 (not (= K1 O1))
                 (not (and (= J1 Q1) (= I1 U)))
                 (not (Proc37 J1 P1 K1 N I1 R1))
                 (= R1 0)
                 (not (= H1 K1))
                 (not (and (= G1 I1) (= F1 J1)))
                 a!1))
        (a!7 (or (= N1 0)
                 (not (Proc30 Q1 P1 O1 N T))
                 (not (= K1 O1))
                 (not (and (= J1 Q1) (= I1 T)))
                 (not (Proc37 J1 P1 K1 N I1 R1))
                 (= R1 0)
                 (not (= H1 K1))
                 (not (and (= G1 I1) (= F1 J1)))
                 a!1))
        (a!8 (or (= N1 0)
                 (not (Proc30 Q1 P1 O1 N S))
                 (not (= K1 O1))
                 (not (and (= J1 Q1) (= I1 S)))
                 (not (Proc37 J1 P1 K1 N I1 R1))
                 (= R1 0)
                 (not (= H1 K1))
                 (not (and (= G1 I1) (= F1 J1)))
                 a!1))
        (a!9 (or (not (Proc30 Q1 P1 O1 N R))
                 (not (= K1 O1))
                 (not (and (= J1 Q1) (= I1 R)))
                 (not (Proc37 J1 P1 K1 N I1 R1))
                 (= R1 0)
                 (not (= H1 K1))
                 (not (and (= G1 I1) (= F1 J1)))
                 a!1))
        (a!10 (or (= N1 0)
                  (not (Proc30 Q1 P1 O1 N Q))
                  (not (= K1 O1))
                  (not (and (= J1 Q1) (= I1 Q)))
                  (not (Proc37 J1 P1 K1 N I1 R1))
                  (= R1 0)
                  (not (= H1 K1))
                  (not (and (= G1 I1) (= F1 J1)))
                  a!1))
        (a!11 (or (= N1 0)
                  (not (Proc30 Q1 P1 O1 N P))
                  (not (= K1 O1))
                  (not (and (= J1 Q1) (= I1 P)))
                  (not (Proc37 J1 P1 K1 N I1 R1))
                  (= R1 0)
                  (not (= H1 K1))
                  (not (and (= G1 I1) (= F1 J1)))
                  a!1))
        (a!12 (or (= N1 0)
                  (not (Proc30 Q1 P1 O1 N O))
                  (not (= K1 O1))
                  (not (and (= J1 Q1) (= I1 O)))
                  (not (Proc37 J1 P1 K1 N I1 R1))
                  (= R1 0)
                  (not (= H1 K1))
                  (not (and (= G1 I1) (= F1 J1)))
                  a!1))
        (a!13 (or (not (Proc30 Q1 P1 O1 N M))
                  (not (= K1 O1))
                  (not (and (= J1 Q1) (= I1 M)))
                  (not (Proc37 J1 P1 K1 N I1 R1))
                  (= R1 0)
                  (not (= H1 K1))
                  (not (and (= G1 I1) (= F1 J1)))
                  a!1))
        (a!14 (or (= N1 0)
                  (not (Proc30 Q1 P1 O1 N L))
                  (not (= K1 O1))
                  (not (and (= J1 Q1) (= I1 L)))
                  (not (Proc37 J1 P1 K1 N I1 R1))
                  (= R1 0)
                  (not (= H1 K1))
                  (not (and (= G1 I1) (= F1 J1)))
                  a!1))
        (a!15 (or (= N1 0)
                  (not (Proc38 Q1 P1 O1 N R1))
                  (not (Proc10 Q1 P1 O1 N M1 R1 K J))
                  (not (= K1 O1))
                  (not (and (= J1 J) (= I1 K)))
                  (not (Proc37 J1 P1 K1 N I1 R1))
                  (= R1 0)
                  (not (= H1 K1))
                  (not (and (= G1 I1) (= F1 J1)))
                  a!1))
        (a!16 (or (= N1 0)
                  (not (Proc14 Q1 P1 O1 N M1 R1 I H))
                  (not (= K1 O1))
                  (not (and (= J1 H) (= I1 I)))
                  (not (Proc37 J1 P1 K1 N I1 R1))
                  (= R1 0)
                  (not (= H1 K1))
                  (not (and (= G1 I1) (= F1 J1)))
                  a!1))
        (a!17 (or (not (Proc30 Q1 P1 O1 N G))
                  (not (= K1 O1))
                  (not (and (= J1 Q1) (= I1 G)))
                  (not (Proc37 J1 P1 K1 N I1 R1))
                  (= R1 0)
                  (not (= H1 K1))
                  (not (and (= G1 I1) (= F1 J1)))
                  a!1))
        (a!19 (or (not (and (= D 1) (= H1 D) (= G1 C) (= F1 E))) a!1))
        (a!21 (or a!20
                  (not (Proc37 J1 P1 K1 N I1 R1))
                  (= R1 0)
                  (not (= H1 K1))
                  (not (and (= G1 I1) (= F1 J1)))
                  a!1)))
  (let ((a!22 (and (or a!18 (and a!19 a!21))
                   (or (not (Proc23 Q1 P1 O1 N)) a!18 (and a!19 a!21)))))
  (let ((a!23 (and (or (= N1 0) a!22) (or (not (= B 1)) (= B 0) (= N1 0) a!22))))
  (let ((a!24 (and (or (= N1 0) a!23) (or (not (= A 1)) (= A 0) (= N1 0) a!23))))
  (let ((a!25 (or (not N)
                  (= R1 0)
                  (not (Proc35 Q1 P1 O1 N R1))
                  (= N1 0)
                  (not (Proc36 Q1 P1 O1 N))
                  (and a!2
                       a!3
                       a!4
                       a!5
                       a!6
                       a!7
                       a!8
                       a!9
                       a!10
                       a!11
                       a!12
                       a!13
                       a!14
                       a!15
                       a!16
                       a!17
                       (or (= N1 0) a!24)))))
    (=> (not a!25) (Proc39 Q1 P1 O1 N M1 R1 E1 A1 Z))))))))))
(assert (forall ((A Int)
         (B Int)
         (C Int)
         (D Int)
         (E Int)
         (F Int)
         (G Int)
         (H Int)
         (I Int)
         (J Int)
         (K Int)
         (L Int)
         (M Int)
         (N Bool)
         (O Int))
  (let ((a!1 (or (not (and (= I O) (= H 0))) (not (and (= G H) (= F I)))))
        (a!2 (or (not (Proc2 O M L N E K D C B))
                 (= A 0)
                 (not (and (= I B) (= H C)))
                 (not (and (= G H) (= F I))))))
  (let ((a!3 (not (or (not N) (not (Proc31 O M L N K J)) (= J 0) (and a!1 a!2)))))
    (=> a!3 (Proc18 O M L N E K D A G F))))))
(assert (forall ((A Int) (B Int) (C Int) (D Int) (E Int) (N Bool))
  (=> (not (or (not N) (= E 0) (= D 0))) (Proc38 C B A N E))))
(assert (forall ((A Int) (B Int) (C Int) (D Int) (N Bool))
  (=> (not (or (not N) (= D 0))) (Proc35 C B A N D))))
(assert (forall ((A Int)
         (B Int)
         (C Int)
         (D Int)
         (E Int)
         (F Int)
         (G Int)
         (H Int)
         (I Int)
         (J Int)
         (K Int)
         (L Int)
         (M Int)
         (N Bool)
         (O Int)
         (P Int))
  (let ((a!1 (or (not (= C 1)) (not (and (= B D) (= A C)))))
        (a!2 (or (= C 1) (not (and (= B D) (= A C))))))
  (let ((a!3 (not (or (not N)
                      (not (Proc34 P O M N L K J I))
                      (not (<= 0 J))
                      (not (= H 1))
                      (= H 0)
                      (not (Proc40 I O M N))
                      (not (Proc39 I O M N G F E D C))
                      (and a!1 a!2)))))
    (=> a!3 (Proc28 P O M N B A))))))
(assert (forall ((A Int) (B Int) (C Int) (N Bool)) (=> N (Proc32 C B A N))))
(assert (forall ((A Int) (B Int) (C Int) (N Bool)) (=> N (Proc33 C B A N))))
(assert (forall ((A Int) (B Int) (C Int) (N Bool)) (=> N (Proc36 C B A N))))
(assert (forall ((A Int) (B Int) (C Int) (D Int) (E Int) (N Bool))
  (=> N (Proc37 E D C N B A))))
(assert (forall ((A Int) (B Int) (C Int) (N Bool)) (=> N (Proc40 C B A N))))
(assert (forall ((A Int)
         (B Int)
         (C Int)
         (D Int)
         (E Int)
         (F Int)
         (G Int)
         (H Int)
         (I Int)
         (J Int)
         (K Int)
         (L Int)
         (M Int)
         (N Bool)
         (O Int)
         (P Int)
         (Q Int)
         (R Int)
         (S Int)
         (T Int)
         (U Int)
         (V Int)
         (W Int)
         (X Int)
         (Y Int)
         (Z Int)
         (A1 Int)
         (E1 Int)
         (F1 Int)
         (G1 Int)
         (H1 Int)
         (I1 Int)
         (J1 Int)
         (K1 Int)
         (L1 Int)
         (M1 Int)
         (N1 Int)
         (O1 Int)
         (P1 Int)
         (Q1 Int)
         (R1 Int)
         (S1 Int)
         (T1 Int)
         (U1 Int)
         (V1 Int)
         (W1 Int)
         (X1 Int)
         (Y1 Int)
         (Z1 Int)
         (A2 Int)
         (B2 Int)
         (C2 Int)
         (D2 Int)
         (E2 Int)
         (F2 Int)
         (G2 Int)
         (H2 Int))
  (let ((a!1 (and (= H2 G2) (not (<= F2 (+ 4 H2)))))
        (a!2 (and (not (<= F2 G2))
                  (= E2 F2)
                  (not (<= D2 (+ 332 E2)))
                  (not (<= D2 F2))))
        (a!3 (and (= C2 D2)
                  (not (<= B2 (+ 4 C2)))
                  (not (<= B2 D2))
                  (= A2 B2)
                  (not (<= Z1 (+ 536 A2)))
                  (not (<= Z1 B2))
                  (= Y1 Z1)
                  (not (<= X1 (+ 240 Y1)))))
        (a!4 (and (not (<= X1 Z1))
                  (= W1 X1)
                  (not (<= V1 (+ 240 W1)))
                  (not (<= V1 X1))
                  (= U1 V1)
                  (not (<= T1 (+ 536 U1)))
                  (not (<= T1 V1))
                  (= S1 T1)
                  (not (<= R1 (+ 240 S1)))
                  (not (<= R1 T1))
                  (= Q1 R1)
                  (not (<= P1 (+ 4 Q1)))
                  (not (<= P1 R1))
                  (= O1 P1)
                  (not (<= N1 (+ 536 O1)))
                  (not (<= N1 P1))
                  (= M1 N1)
                  (not (<= L1 (+ 332 M1)))
                  (not (<= L1 N1))
                  (= K1 L1)
                  (not (<= J1 (+ 240 K1)))
                  (not (<= J1 L1))
                  (= I1 J1)
                  (not (<= H1 (+ 240 I1)))
                  (not (<= H1 J1))
                  (= G1 H1)
                  (not (<= F1 (+ 332 G1)))
                  (not (<= F1 H1))
                  (= E1 F1)
                  (not (<= A1 (+ 4 E1)))
                  (not (<= A1 F1))
                  (= Z A1)
                  (not (<= Y (+ 68 Z)))
                  (not (<= Y A1))
                  (= X Y)
                  (not (<= W (+ 536 X)))
                  (not (<= W Y))
                  (= V W)
                  (not (<= U (+ 240 V)))
                  (not (<= U W))
                  (= T U)
                  (not (<= S (+ 240 T)))
                  (not (<= S U))
                  (= R S)
                  (not (<= Q (+ 240 R)))
                  (not (<= Q S))
                  (= P Q)
                  (not (<= O (+ 240 P)))
                  (not (<= O Q))
                  (= M O)
                  (not (<= L (+ 240 M)))
                  (not (<= L O))
                  (= K L)
                  (not (<= J (+ 40 K)))
                  (not (<= J L))
                  (= I J)
                  (not (<= H (+ 332 I)))
                  (not (<= H J))
                  (= G H)
                  (not (<= F (+ 4 G)))
                  (not (<= F H))
                  (= E F)
                  (not (<= D (+ 40 E)))
                  (not (<= D F)))))
  (let ((a!5 (not (or (not N)
                      (not a!1)
                      (not a!2)
                      (not a!3)
                      (not a!4)
                      (not (= C D))))))
    (=> a!5 (Proc27 G2 B A N C))))))
(assert (forall ((A Int)
         (B Int)
         (C Int)
         (D Int)
         (E Int)
         (F Int)
         (G Int)
         (H Int)
         (I Int)
         (J Int)
         (K Int)
         (N Bool)
         (B1 Bool)
         (C1 Bool))
  (let ((a!1 (or (not C1) (not (and (Proc29 K J I true H G F B1 E) (not B1))))))
    (=> (not a!1) (Proc41 K J I C1 D N C B A)))))
(assert (let ((a!1 (exists ((V0 Int)
                    (V1 Int)
                    (V2 Int)
                    (V3 Bool)
                    (V4 Int)
                    (V5 Bool)
                    (V6 Int)
                    (V7 Int)
                    (V8 Int))
             (not (=> (and (Proc41 V0 V1 V2 V3 V4 V5 V6 V7 V8) (not false))
                      false)))))
  (not a!1)))

(check-sat)
